c random clauses
p cnf 15 32
-15 -14 -13 -9 -6 -1 2 7 0
-15 -14 -10 -9 -3 1 4 12 0
-15 -14 -9 -1 2 7 10 11 0
-15 -13 -12 -10 -9 -8 3 14 0
-15 -13 -7 -6 -2 5 9 14 0
-15 -13 -6 2 8 10 11 14 0
-15 -12 -6 -4 -3 -2 8 9 0
-15 -11 -9 -4 -2 1 5 10 0
-15 -9 -8 -6 -5 1 4 11 0
-15 -9 -2 -1 4 6 8 12 0
-15 -8 7 10 11 12 13 14 0
-14 -13 -8 -2 5 9 10 15 0
-14 -13 -6 -5 -1 3 8 11 0
-14 -11 -10 -8 -6 -4 2 13 0
-14 -11 -9 -8 -1 3 7 12 0
-14 -11 -8 -6 -3 1 7 9 0
-14 -10 -6 -1 2 5 11 15 0
-14 -8 -7 -3 1 9 10 11 0
-14 -5 -4 -3 -2 9 11 13 0
-13 -11 -10 -9 -7 -5 -1 2 0
-13 -11 -7 -6 -3 -1 2 9 0
-12 -11 -10 -5 -4 2 3 6 0
-12 -11 -5 -4 -1 8 13 14 0
-12 -10 -7 -2 -1 3 5 6 0
-12 -4 2 3 5 6 7 9 0
-12 -2 3 5 9 10 11 13 0
-11 -8 -5 -3 6 7 12 13 0
-10 -1 2 6 9 11 13 14 0
-9 -7 -2 3 5 6 10 12 0
-8 -7 -3 2 9 10 11 13 0
-7 -5 -4 -2 1 3 14 15 0
-6 -5 2 3 8 11 12 15 0
